(set-logic QF_SLIA)
(declare-const result String)
(declare-const attack String)
(declare-const prefix RegLan)
(declare-const infix RegLan)
(declare-const postfix RegLan)
(declare-const postfixs String)

(assert (str.in_re attack (re.++ prefix ((_ re.loop 5000 5000) infix) postfix)))
(assert (= prefix 
     (re.++  (re.++  (re.++  (str.to_re "\u{70}") (re.++  (str.to_re "\u{68}") (re.++  (str.to_re "\u{69}") (re.++  (str.to_re "\u{6c}") (re.++  (str.to_re "\u{70}") (re.++  (str.to_re "\u{6f}") (re.++  (str.to_re "\u{64}") (re.++  (str.to_re "\u{64}") (re.++  (str.to_re "\u{65}")  (str.to_re "\u{72}")))))))))) (re.++  (str.to_re "\u{5c}\u{2f}") (re.++ (re.+ (re.range "0" "9") ) (re.++  (str.to_re "\u{5c}\u{2e}") (re.++ (re.+ (re.range "0" "9") ) (re.opt  (str.to_re "\u{5c}\u{2e}") )))))) (re.+  (re.union (re.union (str.to_re "\u{09}") (str.to_re "\u{0a}") (str.to_re "\u{0d}") (str.to_re " "))  (str.to_re "\u{2e}")) ))
))
(assert (= infix 
        (re.inter  (re.++ (re.+  (re.union (re.union (str.to_re "\u{09}") (str.to_re "\u{0a}") (str.to_re "\u{0d}") (str.to_re " "))  (str.to_re "\u{2e}")) ) (re.+  (re.union (re.union (str.to_re "\u{09}") (str.to_re "\u{0a}") (str.to_re "\u{0d}") (str.to_re " "))  (str.to_re "\u{2e}")) ))  (re.++ (re.+  (re.union (re.union (str.to_re "\u{09}") (str.to_re "\u{0a}") (str.to_re "\u{0d}") (str.to_re " "))  (str.to_re "\u{2e}")) ) (re.++ (re.opt  (str.to_re "\u{5c}\u{2e}") ) (re.+  (re.union (re.union (str.to_re "\u{09}") (str.to_re "\u{0a}") (str.to_re "\u{0d}") (str.to_re " "))  (str.to_re "\u{2e}")) ))) )
))
(assert (= postfix 
         (re.inter  (re.++  (str.to_re "\u{00}") (re.++  (str.to_re "\u{00}") (re.*  (re.union (re.union (str.to_re "\u{09}") (str.to_re "\u{0a}") (str.to_re "\u{0d}") (str.to_re " ")) (re.inter re.allchar (re.comp (re.union (str.to_re "\u{09}") (str.to_re "\u{0a}") (str.to_re "\u{0d}") (str.to_re " "))))) ))) (re.comp (re.+  (re.union (re.union (str.to_re "\u{09}") (str.to_re "\u{0a}") (str.to_re "\u{0d}") (str.to_re " "))  (str.to_re "\u{2e}")) )))
))
(assert (str.in_re postfixs postfix))
(assert (>= (str.len postfixs) 1))
(assert (= result (str.++ attack postfixs)))
(check-sat)
(get-model)